25
25
1
3
3600
463 734 775 905 969 975 1027 1189 1220 1290 1571 1730 1739 1757 1778 2013 2031 2218 2324 2452 2590 2665 2706 2722 2812 
22 25 12 23 7 22 8 16 23 24 38 7 8 28 37 35 23 12 5 32 13 17 21 19 9 
